106
0 95 99 46 43 18 57 84 73 31 
36 85 25 20 83 97 30 44 32 35 
15 40 17 62 69 7 61 8 102 55 
39 37 5 96 75 53 80 90 66 22 
10 34 100 65 78 72 59 103 21 82 
28 89 63 60 105 67 19 87 41 98 
86 3 26 50 74 13 104 6 70 48 
4 2 38 52 58 64 88 76 92 93 
81 79 33 16 51 54 68 23 12 11 
29 94 1 47 91 9 27 101 14 24 
45 77 49 56 71 42 
